p tw 256 704
1 33
2 34
3 35
4 36
5 37
6 38
7 39
8 40
9 41
10 42
11 43
12 44
13 45
14 46
15 47
16 48
17 49
18 50
19 51
20 52
21 53
22 54
23 55
24 56
25 57
26 58
27 59
28 60
29 61
30 62
31 63
32 64
33 100
33 101
33 102
33 103
34 117
34 138
34 140
34 141
35 69
35 86
35 90
35 91
36 82
36 87
36 98
36 99
37 113
37 116
37 120
37 123
38 93
38 100
38 109
38 112
39 77
39 120
39 121
39 122
40 76
40 109
40 110
40 111
41 86
41 87
41 88
41 89
42 73
42 92
42 96
42 97
43 65
43 69
43 70
43 71
44 65
44 66
44 67
44 68
45 104
45 127
45 129
45 130
46 72
46 79
46 80
46 81
47 70
47 113
47 114
47 115
48 101
48 129
48 134
48 137
49 110
49 114
49 127
49 128
50 92
50 93
50 94
50 95
51 116
51 117
51 118
51 119
52 66
52 76
52 77
52 78
53 80
53 107
53 124
53 126
54 72
54 73
54 74
54 75
55 98
55 106
55 107
55 108
56 83
56 106
56 124
56 125
57 74
57 134
57 135
57 136
58 102
58 135
58 142
58 144
59 88
59 96
59 131
59 133
60 82
60 83
60 84
60 85
61 79
61 90
61 104
61 105
62 118
62 140
62 142
62 143
63 94
63 121
63 131
63 132
64 67
64 84
64 138
64 139
65 66
65 67
65 68
65 69
65 70
65 71
66 67
66 68
66 76
66 77
66 78
67 68
67 84
67 138
67 139
68 145
68 146
68 147
68 148
69 70
69 71
69 86
69 90
69 91
70 71
70 113
70 114
70 115
71 145
71 149
71 150
71 151
72 73
72 74
72 75
72 79
72 80
72 81
73 74
73 75
73 92
73 96
73 97
74 75
74 134
74 135
74 136
75 152
75 153
75 154
75 155
76 77
76 78
76 109
76 110
76 111
77 78
77 120
77 121
77 122
78 146
78 156
78 157
78 158
79 80
79 81
79 90
79 104
79 105
80 81
80 107
80 124
80 126
81 152
81 159
81 160
81 161
82 83
82 84
82 85
82 87
82 98
82 99
83 84
83 85
83 106
83 124
83 125
84 85
84 138
84 139
85 162
85 163
85 164
85 165
86 87
86 88
86 89
86 90
86 91
87 88
87 89
87 98
87 99
88 89
88 96
88 131
88 133
89 166
89 167
89 168
89 169
90 91
90 104
90 105
91 149
91 166
91 170
91 171
92 93
92 94
92 95
92 96
92 97
93 94
93 95
93 100
93 109
93 112
94 95
94 121
94 131
94 132
95 172
95 173
95 174
95 175
96 97
96 131
96 133
97 153
97 172
97 176
97 177
98 99
98 106
98 107
98 108
99 162
99 167
99 178
99 179
100 101
100 102
100 103
100 109
100 112
101 102
101 103
101 129
101 134
101 137
102 103
102 135
102 142
102 144
103 180
103 181
103 182
103 183
104 105
104 127
104 129
104 130
105 159
105 170
105 184
105 185
106 107
106 108
106 124
106 125
107 108
107 124
107 126
108 178
108 186
108 187
108 188
109 110
109 111
109 112
110 111
110 114
110 127
110 128
111 156
111 189
111 190
111 191
112 173
112 180
112 189
112 192
113 114
113 115
113 116
113 120
113 123
114 115
114 127
114 128
115 150
115 193
115 194
115 195
116 117
116 118
116 119
116 120
116 123
117 118
117 119
117 138
117 140
117 141
118 119
118 140
118 142
118 143
119 196
119 197
119 198
119 199
120 121
120 122
120 123
121 122
121 131
121 132
122 157
122 200
122 201
122 202
123 193
123 196
123 200
123 203
124 125
124 126
125 163
125 186
125 204
125 205
126 160
126 187
126 204
126 206
127 128
127 129
127 130
128 190
128 194
128 207
128 208
129 130
129 134
129 137
130 184
130 207
130 209
130 210
131 132
131 133
132 174
132 201
132 211
132 212
133 168
133 176
133 211
133 213
134 135
134 136
134 137
135 136
135 142
135 144
136 154
136 214
136 215
136 216
137 181
137 209
137 214
137 217
138 139
138 140
138 141
139 147
139 164
139 218
139 219
140 141
140 142
140 143
141 197
141 218
141 220
141 221
142 143
142 144
143 198
143 220
143 222
143 223
144 182
144 215
144 222
144 224
145 146
145 147
145 148
145 149
145 150
145 151
146 147
146 148
146 156
146 157
146 158
147 148
147 164
147 218
147 219
148 245
149 150
149 151
149 166
149 170
149 171
150 151
150 193
150 194
150 195
151 246
152 153
152 154
152 155
152 159
152 160
152 161
153 154
153 155
153 172
153 176
153 177
154 155
154 214
154 215
154 216
155 235
156 157
156 158
156 189
156 190
156 191
157 158
157 200
157 201
157 202
158 237
159 160
159 161
159 170
159 184
159 185
160 161
160 187
160 204
160 206
161 243
162 163
162 164
162 165
162 167
162 178
162 179
163 164
163 165
163 186
163 204
163 205
164 165
164 218
164 219
165 229
166 167
166 168
166 169
166 170
166 171
167 168
167 169
167 178
167 179
168 169
168 176
168 211
168 213
169 248
170 171
170 184
170 185
171 254
172 173
172 174
172 175
172 176
172 177
173 174
173 175
173 180
173 189
173 192
174 175
174 201
174 211
174 212
175 239
176 177
176 211
176 213
177 247
178 179
178 186
178 187
178 188
179 253
180 181
180 182
180 183
180 189
180 192
181 182
181 183
181 209
181 214
181 217
182 183
182 215
182 222
182 224
183 256
184 185
184 207
184 209
184 210
185 228
186 187
186 188
186 204
186 205
187 188
187 204
187 206
188 234
189 190
189 191
189 192
190 191
190 194
190 207
190 208
191 249
192 251
193 194
193 195
193 196
193 200
193 203
194 195
194 207
194 208
195 242
196 197
196 198
196 199
196 200
196 203
197 198
197 199
197 218
197 220
197 221
198 199
198 220
198 222
198 223
199 238
200 201
200 202
200 203
201 202
201 211
201 212
202 250
203 252
204 205
204 206
205 233
206 236
207 208
207 209
207 210
208 240
209 210
209 214
209 217
210 244
211 212
211 213
212 226
213 230
214 215
214 216
214 217
215 216
215 222
215 224
216 232
217 241
218 219
218 220
218 221
219 225
220 221
220 222
220 223
221 255
222 223
222 224
223 227
224 231
